Welcome to the CBC MILP Solver 
Version: Trunk
Build Date: Apr 16 2020 

Starting solution of the Linear programming relaxation problem using Primal Simplex

Using Python-MIP package version 1.8.1
Machines:  4 Jobs:  4
Order: 
Job  0 : machine 0 ( 10 ) machine 3 ( 1 ) machine 2 ( 6 ) machine 1 ( 7 ) 
Job  1 : machine 0 ( 1 ) machine 3 ( 7 ) machine 1 ( 5 ) machine 2 ( 8 ) 
Job  2 : machine 3 ( 9 ) machine 2 ( 3 ) machine 1 ( 7 ) machine 0 ( 1 ) 
Job  3 : machine 1 ( 7 ) machine 3 ( 3 ) machine 0 ( 9 ) machine 2 ( 10 ) 
K:  44
Job  0 , e: machine  0 ( 0 ) machine  1 ( 17 ) machine  2 ( 11 ) machine  3 ( 10 ) 
Job  1 , e: machine  0 ( 0 ) machine  1 ( 8 ) machine  2 ( 13 ) machine  3 ( 1 ) 
Job  2 , e: machine  0 ( 19 ) machine  1 ( 12 ) machine  2 ( 9 ) machine  3 ( 0 ) 
Job  3 , e: machine  0 ( 10 ) machine  1 ( 0 ) machine  2 ( 19 ) machine  3 ( 7 ) 
Job  0 , f: machine  0 ( 14 ) machine  1 ( 0 ) machine  2 ( 7 ) machine  3 ( 13 ) 
Job  1 , f: machine  0 ( 20 ) machine  1 ( 8 ) machine  2 ( 0 ) machine  3 ( 13 ) 
Job  2 , f: machine  0 ( 0 ) machine  1 ( 1 ) machine  2 ( 8 ) machine  3 ( 11 ) 
Job  3 , f: machine  0 ( 10 ) machine  1 ( 22 ) machine  2 ( 0 ) machine  3 ( 19 ) 
EST and LST:
Job: 0 Machine: 0 EST: 0 LST: 20
Job: 0 Machine: 1 EST: 17 LST: 37
Job: 0 Machine: 2 EST: 11 LST: 31
Job: 0 Machine: 3 EST: 10 LST: 30
Job: 1 Machine: 0 EST: 0 LST: 23
Job: 1 Machine: 1 EST: 8 LST: 31
Job: 1 Machine: 2 EST: 13 LST: 36
Job: 1 Machine: 3 EST: 1 LST: 24
Job: 2 Machine: 0 EST: 19 LST: 43
Job: 2 Machine: 1 EST: 12 LST: 36
Job: 2 Machine: 2 EST: 9 LST: 33
Job: 2 Machine: 3 EST: 0 LST: 24
Job: 3 Machine: 0 EST: 10 LST: 25
Job: 3 Machine: 1 EST: 0 LST: 15
Job: 3 Machine: 2 EST: 19 LST: 34
Job: 3 Machine: 3 EST: 7 LST: 22
Order:
Job: 0 Machine: 0 = 0 
Job: 0 Machine: 1 = 3 
Job: 0 Machine: 2 = 2 
Job: 0 Machine: 3 = 1 
Job: 1 Machine: 0 = 0 
Job: 1 Machine: 1 = 2 
Job: 1 Machine: 2 = 3 
Job: 1 Machine: 3 = 1 
Job: 2 Machine: 0 = 3 
Job: 2 Machine: 1 = 2 
Job: 2 Machine: 2 = 1 
Job: 2 Machine: 3 = 0 
Job: 3 Machine: 0 = 2 
Job: 3 Machine: 1 = 0 
Job: 3 Machine: 2 = 3 
Job: 3 Machine: 3 = 1 
Distances:
Job 0, Machine 0 -> Machine 3: distance 10
Job 0, Machine 0 -> Machine 2: distance 11
Job 0, Machine 0 -> Machine 1: distance 17
Job 0, Machine 3 -> Machine 2: distance 1
Job 0, Machine 3 -> Machine 1: distance 7
Job 0, Machine 2 -> Machine 1: distance 6
Job 1, Machine 0 -> Machine 3: distance 1
Job 1, Machine 0 -> Machine 1: distance 8
Job 1, Machine 0 -> Machine 2: distance 13
Job 1, Machine 3 -> Machine 1: distance 7
Job 1, Machine 3 -> Machine 2: distance 12
Job 1, Machine 1 -> Machine 2: distance 5
Job 2, Machine 3 -> Machine 2: distance 9
Job 2, Machine 3 -> Machine 1: distance 12
Job 2, Machine 3 -> Machine 0: distance 19
Job 2, Machine 2 -> Machine 1: distance 3
Job 2, Machine 2 -> Machine 0: distance 10
Job 2, Machine 1 -> Machine 0: distance 7
Job 3, Machine 1 -> Machine 3: distance 7
Job 3, Machine 1 -> Machine 0: distance 10
Job 3, Machine 1 -> Machine 2: distance 19
Job 3, Machine 3 -> Machine 0: distance 3
Job 3, Machine 3 -> Machine 2: distance 12
Job 3, Machine 0 -> Machine 2: distance 9
McCormic linearization
19.0 13.0 7
14.0 13.0 7
19.0 19.0 10
10.0 7.0 7
7.0 1.0 9
7.0 7.0 3
[(0, 1), (1, 2), (3, 2), (0, 0), (1, 3), (3, 3), (2, 1), (2, 3), (1, 0), (0, 3)]
obj:  0.6000000000000001
solutions:  1
+ x(0,0) + 0.1x(1,0) 
C:  29.0
x(0,0) = 0.73	 x(0,1) = 22.00	 x(0,2) = 11.73	 x(0,3) = 10.73	 
x(1,0) = 2.73	 x(1,1) = 10.73	 x(1,2) = 15.73	 x(1,3) = 3.73	 
x(2,0) = 22.73	 x(2,1) = 15.73	 x(2,2) = 12.73	 x(2,3) = 3.73	 
x(3,0) = 10.00	 x(3,1) = 0.00	 x(3,2) = 19.00	 x(3,3) = 7.00	 
y(0,1,0) = 0.13	 y(1,0,0) = 0.87	 
y(0,2,0) = 0.64	 y(2,0,0) = 0.36	 
y(0,3,0) = 0.96	 y(3,0,0) = 0.04	 
y(1,2,0) = 0.48	 y(2,1,0) = 0.52	 
y(1,3,0) = 0.74	 y(3,1,0) = 0.26	 
y(2,3,0) = 0.00	 y(3,2,0) = 1.00	 
y(0,1,1) = 0.14	 y(1,0,1) = 0.86	 
y(0,2,1) = 0.03	 y(2,0,1) = 0.97	 
y(0,3,1) = 0.00	 y(3,0,1) = 1.00	 
y(1,2,1) = 0.34	 y(2,1,1) = 0.66	 
y(1,3,1) = 0.16	 y(3,1,1) = 0.84	 
y(2,3,1) = 0.00	 y(3,2,1) = 1.00	 
y(0,1,2) = 0.36	 y(1,0,2) = 0.64	 
y(0,2,2) = 0.39	 y(2,0,2) = 0.61	 
y(0,3,2) = 1.00	 y(3,0,2) = 0.00	 
y(1,2,2) = 0.00	 y(2,1,2) = 1.00	 
y(1,3,2) = 0.43	 y(3,1,2) = 0.57	 
y(2,3,2) = 0.85	 y(3,2,2) = 0.15	 
y(0,1,3) = 0.00	 y(1,0,3) = 1.00	 
y(0,2,3) = 0.09	 y(2,0,3) = 0.91	 
y(0,3,3) = 0.04	 y(3,0,3) = 0.96	 
y(1,2,3) = 0.28	 y(2,1,3) = 0.72	 
y(1,3,3) = 0.26	 y(3,1,3) = 0.74	 
y(2,3,3) = 0.25	 y(3,2,3) = 0.75	 
22.0 15.727272727272732 7
15.727272727272727 12.72727272727273 3
10.727272727272725 3.727272727272727 7
obj:  0.7990774380536392
solutions:  1
+ 0.014930399640772338x(1,2) + 0.023462056578356535x(3,2) + 0.010103277952402338x(0,2) 
[(0, 1), (1, 2), (3, 2), (0, 0), (3, 0), (2, 1), (2, 2), (1, 0), (0, 2), (0, 3)]
cliques:  1 mip: 97
C:  30.62962962962963
x(0,0) = 0.05	 x(0,1) = 23.63	 x(0,2) = 17.63	 x(0,3) = 10.05	 
x(1,0) = 9.58	 x(1,1) = 17.63	 x(1,2) = 22.63	 x(1,3) = 10.63	 
x(2,0) = 23.63	 x(2,1) = 16.63	 x(2,2) = 13.63	 x(2,3) = 4.63	 
x(3,0) = 10.63	 x(3,1) = 0.63	 x(3,2) = 20.63	 x(3,3) = 7.63	 
y(0,1,0) = 0.98	 y(1,0,0) = 0.02	 
y(0,2,0) = 0.59	 y(2,0,0) = 0.41	 
y(0,3,0) = 1.00	 y(3,0,0) = 0.00	 
y(1,2,0) = 0.44	 y(2,1,0) = 0.56	 
y(1,3,0) = 1.00	 y(3,1,0) = 0.00	 
y(2,3,0) = 0.00	 y(3,2,0) = 1.00	 
y(0,1,1) = 0.35	 y(1,0,1) = 0.65	 
y(0,2,1) = 0.00	 y(2,0,1) = 1.00	 
y(0,3,1) = 0.00	 y(3,0,1) = 1.00	 
y(1,2,1) = 0.17	 y(2,1,1) = 0.83	 
y(1,3,1) = 0.34	 y(3,1,1) = 0.66	 
y(2,3,1) = 0.00	 y(3,2,1) = 1.00	 
y(0,1,2) = 0.45	 y(1,0,2) = 0.55	 
y(0,2,2) = 0.30	 y(2,0,2) = 0.70	 
y(0,3,2) = 0.83	 y(3,0,2) = 0.17	 
y(1,2,2) = 0.25	 y(2,1,2) = 0.75	 
y(1,3,2) = 0.48	 y(3,1,2) = 0.52	 
y(2,3,2) = 0.82	 y(3,2,2) = 0.18	 
y(0,1,3) = 0.36	 y(1,0,3) = 0.64	 
y(0,2,3) = 0.16	 y(2,0,3) = 0.84	 
y(0,3,3) = 0.04	 y(3,0,3) = 0.96	 
y(1,2,3) = 0.09	 y(2,1,3) = 0.91	 
y(1,3,3) = 0.00	 y(3,1,3) = 1.00	 
y(2,3,3) = 0.24	 y(3,2,3) = 0.76	 
23.62962962962963 16.629629629629633 7
17.629629629629626 16.629629629629633 7
22.629629629629623 20.629629629629626 10
10.052910052910054 4.6296296296296315 9
10.052910052910054 7.629629629629627 3
10.629629629629626 4.6296296296296315 9
obj:  1.0052910052910053
erro
[(0, 1), (1, 2), (3, 2), (0, 0), (1, 3), (2, 1), (2, 3), (1, 0), (0, 2), (0, 3)]
cliques:  0 mip: 121
C:  31.000000000000004
x(0,0) = 0.44	 x(0,1) = 22.22	 x(0,2) = 16.22	 x(0,3) = 11.22	 
x(1,0) = 5.62	 x(1,1) = 13.67	 x(1,2) = 23.00	 x(1,3) = 6.62	 
x(2,0) = 27.13	 x(2,1) = 20.13	 x(2,2) = 11.89	 x(2,3) = 2.89	 
x(3,0) = 10.44	 x(3,1) = 0.44	 x(3,2) = 21.00	 x(3,3) = 7.44	 
y(0,1,0) = 0.84	 y(1,0,0) = 0.16	 
y(0,2,0) = 0.63	 y(2,0,0) = 0.37	 
y(0,3,0) = 1.00	 y(3,0,0) = 0.00	 
y(1,2,0) = 0.51	 y(2,1,0) = 0.49	 
y(1,3,0) = 0.84	 y(3,1,0) = 0.16	 
y(2,3,0) = 0.00	 y(3,2,0) = 1.00	 
y(0,1,1) = 0.22	 y(1,0,1) = 0.78	 
y(0,2,1) = 0.37	 y(2,0,1) = 0.63	 
y(0,3,1) = 0.00	 y(3,0,1) = 1.00	 
y(1,2,1) = 0.38	 y(2,1,1) = 0.62	 
y(1,3,1) = 0.33	 y(3,1,1) = 0.67	 
y(2,3,1) = 0.00	 y(3,2,1) = 1.00	 
y(0,1,2) = 0.45	 y(1,0,2) = 0.55	 
y(0,2,2) = 0.07	 y(2,0,2) = 0.93	 
y(0,3,2) = 0.59	 y(3,0,2) = 0.41	 
y(1,2,2) = 0.34	 y(2,1,2) = 0.66	 
y(1,3,2) = 0.57	 y(3,1,2) = 0.43	 
y(2,3,2) = 0.72	 y(3,2,2) = 0.28	 
y(0,1,3) = 0.24	 y(1,0,3) = 0.76	 
y(0,2,3) = 0.03	 y(2,0,3) = 0.97	 
y(0,3,3) = 0.04	 y(3,0,3) = 0.96	 
y(1,2,3) = 0.16	 y(2,1,3) = 0.84	 
y(1,3,3) = 0.16	 y(3,1,3) = 0.84	 
y(2,3,3) = 0.30	 y(3,2,3) = 0.70	 
22.222222222222175 20.131609796083808 7
23.0 21.000000000000014 10
11.216298790372825 6.619981889107057 7
11.216298790372825 2.887323943661967 9
6.619981889107057 2.887323943661967 9
obj:  0.9139845206876772
solutions:  1
+ 0.06713164777680908x(1,3) + 0.061028770706190075x(2,3) + 0.02615518744551001x(0,3) 
[(0, 1), (3, 2), (0, 0), (1, 3), (3, 0), (2, 1), (2, 3), (1, 0), (0, 2), (0, 3)]
cliques:  1 mip: 212
C:  31.110339506172842
x(0,0) = 0.45	 x(0,1) = 22.81	 x(0,2) = 16.81	 x(0,3) = 15.73	 
x(1,0) = 5.45	 x(1,1) = 16.55	 x(1,2) = 23.11	 x(1,3) = 6.45	 
x(2,0) = 26.69	 x(2,1) = 19.69	 x(2,2) = 15.73	 x(2,3) = 6.73	 
x(3,0) = 12.11	 x(3,1) = 2.11	 x(3,2) = 21.11	 x(3,3) = 9.11	 
y(0,1,0) = 0.83	 y(1,0,0) = 0.17	 
y(0,2,0) = 0.62	 y(2,0,0) = 0.38	 
y(0,3,0) = 0.94	 y(3,0,0) = 0.06	 
y(1,2,0) = 0.72	 y(2,1,0) = 0.28	 
y(1,3,0) = 0.76	 y(3,1,0) = 0.24	 
y(2,3,0) = 0.00	 y(3,2,0) = 1.00	 
y(0,1,1) = 0.04	 y(1,0,1) = 0.96	 
y(0,2,1) = 0.43	 y(2,0,1) = 0.57	 
y(0,3,1) = 0.00	 y(3,0,1) = 1.00	 
y(1,2,1) = 0.29	 y(2,1,1) = 0.71	 
y(1,3,1) = 0.46	 y(3,1,1) = 0.54	 
y(2,3,1) = 0.00	 y(3,2,1) = 1.00	 
y(0,1,2) = 0.93	 y(1,0,2) = 0.07	 
y(0,2,2) = 0.21	 y(2,0,2) = 0.79	 
y(0,3,2) = 0.43	 y(3,0,2) = 0.57	 
y(1,2,2) = 0.18	 y(2,1,2) = 0.82	 
y(1,3,2) = 0.60	 y(3,1,2) = 0.40	 
y(2,3,2) = 0.89	 y(3,2,2) = 0.11	 
y(0,1,3) = 0.00	 y(1,0,3) = 1.00	 
y(0,2,3) = 0.00	 y(2,0,3) = 1.00	 
y(0,3,3) = 0.18	 y(3,0,3) = 0.82	 
y(1,2,3) = 0.29	 y(2,1,3) = 0.71	 
y(1,3,3) = 0.24	 y(3,1,3) = 0.76	 
y(2,3,3) = 0.22	 y(3,2,3) = 0.78	 
22.810339506172806 19.685780978688307 7
16.810339506172802 15.728453228869892 3
23.110339506172842 21.110339506172842 10
obj:  0.9894695373776041
solutions:  1
+ 0.675954592363261x(0,0) + 0.07017543859649122x(1,3) + 0.01754385964912281x(3,3) + 0.010319917440660482x(2,3) 
[(0, 1), (3, 2), (0, 0), (1, 3), (3, 3), (2, 1), (2, 3), (2, 2), (1, 0), (0, 2)]
cliques:  1 mip: 191
C:  32.42746913580246
x(0,0) = 0.45	 x(0,1) = 22.43	 x(0,2) = 16.43	 x(0,3) = 11.76	 
x(1,0) = 6.20	 x(1,1) = 14.20	 x(1,2) = 20.62	 x(1,3) = 7.20	 
x(2,0) = 22.43	 x(2,1) = 15.43	 x(2,2) = 12.43	 x(2,3) = 3.43	 
x(3,0) = 13.43	 x(3,1) = 1.76	 x(3,2) = 22.43	 x(3,3) = 8.76	 
y(0,1,0) = 0.86	 y(1,0,0) = 0.14	 
y(0,2,0) = 0.93	 y(2,0,0) = 0.07	 
y(0,3,0) = 1.00	 y(3,0,0) = -0.00	 
y(1,2,0) = 0.64	 y(2,1,0) = 0.36	 
y(1,3,0) = 0.65	 y(3,1,0) = 0.35	 
y(2,3,0) = 0.00	 y(3,2,0) = 1.00	 
y(0,1,1) = 0.25	 y(1,0,1) = 0.75	 
y(0,2,1) = 0.00	 y(2,0,1) = 1.00	 
y(0,3,1) = 0.00	 y(3,0,1) = 1.00	 
y(1,2,1) = 0.50	 y(2,1,1) = 0.50	 
y(1,3,1) = 0.13	 y(3,1,1) = 0.87	 
y(2,3,1) = 0.00	 y(3,2,1) = 1.00	 
y(0,1,2) = 0.48	 y(1,0,2) = 0.52	 
y(0,2,2) = 0.00	 y(2,0,2) = 1.00	 
y(0,3,2) = 1.00	 y(3,0,2) = 0.00	 
y(1,2,2) = 0.10	 y(2,1,2) = 0.90	 
y(1,3,2) = 0.38	 y(3,1,2) = 0.62	 
y(2,3,2) = 0.94	 y(3,2,2) = 0.06	 
y(0,1,3) = 0.29	 y(1,0,3) = 0.71	 
y(0,2,3) = 0.04	 y(2,0,3) = 0.96	 
y(0,3,3) = 0.00	 y(3,0,3) = 1.00	 
y(1,2,3) = 0.16	 y(2,1,3) = 0.84	 
y(1,3,3) = 0.19	 y(3,1,3) = 0.81	 
y(2,3,3) = 0.81	 y(3,2,3) = 0.19	 
22.427469135802465 15.427469135802472 7
11.760209399627316 7.1983230974667425 7
11.760209399627316 3.4274691358034506 9
11.760209399627316 8.760209399627318 3
7.1983230974667425 3.4274691358034506 9
obj:  1.0
erro
[(0, 1), (1, 2), (3, 2), (0, 0), (1, 3), (2, 1), (2, 3), (1, 0), (0, 2), (0, 3)]
cliques:  0 mip: 193
C:  34.33333333333294
x(0,0) = 0.70	 x(0,1) = 26.77	 x(0,2) = 18.33	 x(0,3) = 11.69	 
x(1,0) = 3.33	 x(1,1) = 11.33	 x(1,2) = 16.33	 x(1,3) = 4.33	 
x(2,0) = 30.69	 x(2,1) = 18.61	 x(2,2) = 15.61	 x(2,3) = 6.61	 
x(3,0) = 13.04	 x(3,1) = 1.69	 x(3,2) = 24.33	 x(3,3) = 8.69	 
y(0,1,0) = 0.75	 y(1,0,0) = 0.25	 
y(0,2,0) = 0.88	 y(2,0,0) = 0.12	 
y(0,3,0) = 1.00	 y(3,0,0) = 0.00	 
y(1,2,0) = 0.72	 y(2,1,0) = 0.28	 
y(1,3,0) = 0.55	 y(3,1,0) = 0.45	 
y(2,3,0) = 0.00	 y(3,2,0) = 1.00	 
y(0,1,1) = 0.00	 y(1,0,1) = 1.00	 
y(0,2,1) = 0.01	 y(2,0,1) = 0.99	 
y(0,3,1) = 0.00	 y(3,0,1) = 1.00	 
y(1,2,1) = 0.68	 y(2,1,1) = 0.32	 
y(1,3,1) = 0.59	 y(3,1,1) = 0.41	 
y(2,3,1) = 0.00	 y(3,2,1) = 1.00	 
y(0,1,2) = 0.38	 y(1,0,2) = 0.62	 
y(0,2,2) = 0.08	 y(2,0,2) = 0.92	 
y(0,3,2) = 1.00	 y(3,0,2) = -0.00	 
y(1,2,2) = 0.35	 y(2,1,2) = 0.65	 
y(1,3,2) = 1.00	 y(3,1,2) = -0.00	 
y(2,3,2) = 0.89	 y(3,2,2) = 0.11	 
y(0,1,3) = 0.07	 y(1,0,3) = 0.93	 
y(0,2,3) = 0.22	 y(2,0,3) = 0.78	 
y(0,3,3) = 0.00	 y(3,0,3) = 1.00	 
y(1,2,3) = 0.35	 y(2,1,3) = 0.65	 
y(1,3,3) = 0.65	 y(3,1,3) = 0.35	 
y(2,3,3) = 0.37	 y(3,2,3) = 0.63	 
18.333333333332615 16.333333333332174 8
18.333333333332615 15.60696952268066 3
16.333333333332174 15.60696952268066 3
11.694848891525883 6.60696952268066 9
obj:  1.0363122752426304
erro
[(1, 2), (0, 0), (3, 3), (2, 3), (2, 2), (1, 0), (0, 2), (0, 3)]
cliques:  0 mip: 189
C:  35.00000000000001
x(0,0) = 1.00	 x(0,1) = 27.22	 x(0,2) = 17.21	 x(0,3) = 11.00	 
x(1,0) = 1.01	 x(1,1) = 15.70	 x(1,2) = 20.70	 x(1,3) = 3.36	 
x(2,0) = 27.34	 x(2,1) = 20.34	 x(2,2) = 17.34	 x(2,3) = 7.98	 
x(3,0) = 12.84	 x(3,1) = 2.84	 x(3,2) = 22.04	 x(3,3) = 9.84	 
y(0,1,0) = 0.67	 y(1,0,0) = 0.33	 
y(0,2,0) = 0.90	 y(2,0,0) = 0.10	 
y(0,3,0) = 1.00	 y(3,0,0) = 0.00	 
y(1,2,0) = 0.65	 y(2,1,0) = 0.35	 
y(1,3,0) = 0.79	 y(3,1,0) = 0.21	 
y(2,3,0) = 0.00	 y(3,2,0) = 1.00	 
y(0,1,1) = 0.00	 y(1,0,1) = 1.00	 
y(0,2,1) = 0.02	 y(2,0,1) = 0.98	 
y(0,3,1) = 0.00	 y(3,0,1) = 1.00	 
y(1,2,1) = 0.79	 y(2,1,1) = 0.21	 
y(1,3,1) = 0.50	 y(3,1,1) = 0.50	 
y(2,3,1) = 0.00	 y(3,2,1) = 1.00	 
y(0,1,2) = 0.53	 y(1,0,2) = 0.47	 
y(0,2,2) = 0.17	 y(2,0,2) = 0.83	 
y(0,3,2) = 0.94	 y(3,0,2) = 0.06	 
y(1,2,2) = 0.30	 y(2,1,2) = 0.70	 
y(1,3,2) = 0.63	 y(3,1,2) = 0.37	 
y(2,3,2) = 1.00	 y(3,2,2) = 0.00	 
y(0,1,3) = 0.00	 y(1,0,3) = 1.00	 
y(0,2,3) = 0.38	 y(2,0,3) = 0.62	 
y(0,3,3) = 0.43	 y(3,0,3) = 0.57	 
y(1,2,3) = 0.46	 y(2,1,3) = 0.54	 
y(1,3,3) = 0.97	 y(3,1,3) = 0.03	 
y(2,3,3) = 0.37	 y(3,2,3) = 0.63	 
27.220101422081633 20.34353667310533 7
11.000000000000002 7.980596346468032 9
11.000000000000002 9.838552100969471 3
obj:  0.9999999999999999
erro
[(0, 1), (1, 2), (3, 2), (0, 0), (2, 1), (2, 3), (2, 2), (1, 0), (0, 2), (0, 3)]
cliques:  0 mip: 0
iterações: 7 cortes cliques encontrados: 4 mip: 1049 objective:  35.00000000000001
Coin0506I Presolve 157 (-171) rows, 90 (-71) columns and 490 (-260) elements
Clp1000I sum of infeasibilities 1.79124e-08 - average 1.14092e-10, 0 fixed columns
Coin0506I Presolve 157 (0) rows, 90 (0) columns and 490 (0) elements
Clp0029I End of values pass after 90 iterations
Clp0000I Optimal - objective value 29
Clp0000I Optimal - objective value 29
Coin0511I After Postsolve, objective 29, infeasibilities - dual 0 (0), primal 0 (0)
Clp0000I Optimal - objective value 29
Clp0000I Optimal - objective value 29
Clp0000I Optimal - objective value 29
Coin0511I After Postsolve, objective 29, infeasibilities - dual 0 (0), primal 0 (0)
Clp0032I Optimal objective 29 - 0 iterations time 0.022, Presolve 0.00, Idiot 0.02
Coin3009W Conflict graph built in 0.000 seconds, density: 0.070%
